\ Model Routes
\ LP format - for model browsing. Use MPS format to capture full model detail.
Maximize
  - 191.7153353028244 R{0,0} + 623.2046552982704 R{0,1}
   + 623.2046552982704 R{0,2} - 249.2301939667805 R{0,3}
   + 222.8649545650627 R{0,4} + 892.5014194710873 R{0,5}
   + 623.2046552982704 R{0,6} + 163.9197735754843 R{0,7}
   + 568.2280287393723 R{0,8} + 852.3918860260821 R{0,9}
   + 525.3312716666663 R{0,10} + 2263.544794824343 R{0,11}
   + 852.3918860260821 R{0,12} + 900.5037914261543 R{0,13}
   + 852.3918860260821 R{0,14} + 1908.366315562758 R{0,15}
   + 2300.828352277234 R{0,16} + 827.8992369343669 R{0,17}
   + 453.2501453660439 R{0,18} + 852.3918860260821 R{0,19}
   + 563.3434037643958 R{0,20} + 827.8992369343669 R{0,21}
   + 700.7562031326688 R{0,22} + 827.8992369343669 R{0,23}
   + 827.8992369343669 R{0,24} + 568.2280287393723 R{0,25}
   + 967.651658928284 R{0,26} + 1594.508757027033 R{0,27}
   + 852.3918860260821 R{0,28} + 852.3918860260821 R{0,29}
   + 1890.801583092837 R{0,30} + 592.7206778310878 R{0,31}
   + 577.8421868511019 R{0,32} + 1890.801583092837 R{0,33}
   + 568.2280287393723 R{0,34} + 391.2121930538833 R{0,35}
   + 391.2121930538833 R{0,36} + 568.2280287393723 R{0,37}
   + 2300.828352277234 R{0,38} + 1576.944024557112 R{0,39}
   + 136.7364181295126 R{0,40} + 1902.670185134038 R{0,41}
   - 256.140831891889 R{1,0} + 216.3226429839851 R{1,1}
   + 843.8103196491563 R{1,2} + 234.8762735232644 R{1,3}
   + 263.1513026158279 R{1,4} + 246.5968317613099 R{1,5}
   + 263.1513026158279 R{1,6} + 884.6392499613178 R{1,7}
   + 2.474480850199228 R{1,8} + 346.0160882857705 R{1,9}
   + 629.8649515766635 R{1,10} + 578.2495887220894 R{1,11}
   + 263.1513026158279 R{1,12} + 367.6540962920018 R{1,13}
   + 422.7869699732668 R{1,14} + 340.8732360004731 R{1,15}
   + 788.058436243208 R{1,16} + 374.2911173783339 R{1,17}
   + 629.8649515766635 R{1,18} + 925.4921256066541 R{1,19}
   + 629.8649515766635 R{1,20} + 541.9724420902087 R{1,21}
   + 1008.585816588849 R{1,22} + 246.5968317613099 R{1,23}
   + 1008.585816588849 R{1,24} + 865.8435766166604 R{1,25}
   + 629.8649515766635 R{1,26} + 55.54723928529762 R{1,27}
   + 346.0160882857705 R{1,28} + 232.9570973740527 R{1,29}
   + 246.5968317613099 R{1,30} + 286.3986078918789 R{1,31}
   + 1198.881248318718 R{2,0} + 1198.881248318718 R{2,1}
   - 278.4443928850388 R{2,2} - 59.13410337035452 R{2,3}
   + 602.7748664658451 R{2,4} + 1100.505917706273 R{2,5}
   + 725.2351538442874 R{2,6} + 1043.298735580204 R{2,7}
   + 407.63208831358 R{2,8} + 935.5844855130847 R{2,9}
   + 911.0918364213696 R{2,10} + 774.166852893441 R{2,11}
   + 655.3237513803258 R{2,12} + 455.7766009581198 R{2,13}
   + 911.0918364213696 R{2,14} + 911.0918364213696 R{2,15}
   + 935.5844855130847 R{2,16} + 859.7234388519278 R{2,17}
   + 859.2856608184791 R{2,18} + 850.7002053155654 R{2,19}
   + 850.7002053155654 R{2,20} + 804.8100299702387 R{2,21}
   + 683.3987217368182 R{2,22} + 1015.305951590442 R{2,23}
   + 455.7766009581198 R{2,24} + 468.4183915256422 R{2,25}
   + 804.8100299702387 R{2,26} + 124.111107645844 R{2,27}
   + 763.9971916281396 R{2,28} + 763.9971916281396 R{2,29}
   + 844.0856204733664 R{2,30} + 797.9164860200972 R{2,31}
   + 437.0900051042056 R{2,32} + 911.0918364213696 R{2,33}
   + 1198.881248318718 R{2,34} + 407.4572917810032 R{2,35}
   + 376.2657087623319 R{2,36} + 773.4238369283817 R{2,37}
   + 514.7392322240837 R{2,38} + 826.2075562238499 R{2,39}
   + 632.19824969827 R{2,40} - 260.2482995389823 R{3,0}
   + 459.0257104485919 R{3,1} + 838.3862215394925 R{3,2}
   + 1209.231413369506 R{3,3} + 643.6066394260856 R{3,4}
   + 933.857947203529 R{3,5} + 542.8123613815044 R{3,6}
   + 246.1996949613905 R{3,7} + 643.6066394260856 R{3,8}
   + 513.5616765185945 R{3,9} + 933.857947203529 R{3,10}
   + 554.4974361126286 R{3,11} + 264.2461283351852 R{3,12}
   + 246.1996949613905 R{3,13} + 116.1547320538992 R{3,14}
   + 650.6033265680742 R{3,15} + 542.2019389609511 R{3,16}
   + 933.857947203529 R{3,17} + 567.2869957148356 R{3,18}
   + 782.2692064522814 R{3,19} + 380.9500855091034 R{3,20}
   + 870.181206873312 R{3,21} + 643.6066394260856 R{3,22}
   + 2554.581685258777 R{3,23} - 242.5208875955131 R{4,0}
   + 806.8474431846837 R{4,1} + 1316.664574514046 R{4,2}
   + 1365.152587038847 R{4,3} + 1751.883766772098 R{4,4}
   + 1365.152587038847 R{4,5} + 1736.548586654753 R{4,6}
   + 855.3354557094847 R{4,7} + 855.3354557094847 R{4,8}
   + 1365.152587038847 R{4,9} + 1736.548586654753 R{4,10}
   + 1518.313166643329 R{4,11} + 473.9009967177203 R{4,12}
   + 845.4105325562668 R{4,13} + 985.0324002524817 R{4,14}
   + 1226.73145532539 R{4,15} + 1990.039871155949 R{4,16}
   + 831.0296045702469 R{4,17} + 1748.764319619695 R{4,18}
   + 307.3745468612163 R{4,19} + 1474.484083729781 R{4,20}
   + 1733.429139502349 R{4,21} + 1340.846735899609 R{4,22}
   + 1185.336834437224 R{4,23} + 1724.458468480457 R{4,24}
   + 834.1490517226503 R{4,25} + 459.5200687317006 R{4,26}
   + 1355.227663885629 R{4,27} + 1355.227663885629 R{4,28}
   + 1059.655324689196 R{4,29} + 459.5200687317006 R{4,30}
   + 88.91404963117805 R{4,31} + 1223.612008172987 R{4,32}
   + 1733.429139502349 R{4,33} + 341.2947980193435 R{4,34}
   + 287.9379130151399 R{4,35} + 1340.846735899609 R{4,36}
   + 506.3984102451782 R{4,37} + 241.0595715016622 R{4,38}
   + 287.9379130151399 R{4,39} + 2318.26754619344 R{4,40}
   + 667.0729210864559 R{4,41} + 1122.386238669571 R{4,42}
   + 1340.846735899609 R{4,43} + 1122.386238669571 R{4,44}
   + 88.91404963117805 R{4,45} + 1688.544090675338 R{4,46}
   + 241.0595715016622 R{4,47} + 960.7265491132439 R{4,48}
   + 1340.846735899609 R{4,49} + 852.1024723344406 R{4,50}
   + 1272.42737112165 R{4,51} + 138.5250774153935 R{4,52}
   + 1340.846735899609 R{4,53} + 459.5200687317006 R{4,54}
   + 88.91404963117805 R{4,55} + 612.5691073402086 R{4,56}
   + 1182.217387284821 R{4,57} + 459.5200687317006 R{4,58}
   + 742.2660518832056 R{4,59} + 122.8343007893052 R{4,60}
   + 459.5200687317006 R{4,61} + 667.0729210864559 R{4,62}
   + 241.0595715016622 R{4,63} + 387.8499332854342 R{4,64}
   + 654.8258981400191 R{4,65} + 880.7041869887407 R{4,66}
   + 1564.333800201293 R{4,67} - 231.9775664337766 R{5,0}
   + 166.8396544238635 R{5,1} + 729.4065638506388 R{5,2}
   + 746.0055580428657 R{5,3} + 161.5413366535873 R{5,4}
   + 378.7452167002058 R{5,5} + 357.2107531207113 R{5,6}
   + 98.51797049164725 R{5,7} + 378.7452167002058 R{5,8}
   + 1118.682488112843 R{5,9} + 279.08767350511 R{5,10}
   + 300.6221370846046 R{5,11} + 407.5109398555743 R{5,12}
   + 1128.481051094433 R{5,13} + 1081.002941831072 R{5,14}
   + 174.6688212847226 R{5,15} + 378.7452167002058 R{5,16}
   + 877.5437496279271 R{5,17} + 722.8954744127188 R{5,18}
   - 231.1436095783099 R{6,0} + 1370.402709432251 R{6,1}
   + 2203.660382897198 R{6,2} + 2548.258740052186 R{6,3}
   + 1738.487771384942 R{6,4} + 1330.262635723032 R{6,5}
   + 2173.348133345508 R{6,6} + 1330.262635723032 R{6,7}
   + 2307.434375132167 R{6,8} + 1765.661122579117 R{6,9}
   + 1179.024147835548 R{6,10} + 894.3349739912073 R{6,11}
   + 1274.088467019194 R{6,12} + 1150.514439109826 R{6,13}
   + 899.6628268556542 R{6,14} + 2015.97460993777 R{6,15}
   + 1268.760614154747 R{6,16} + 1683.220288244403 R{6,17}
   + 1324.934782858585 R{6,18} + 2307.434375132167 R{6,19}
   + 1592.095418285224 R{6,20} + 1037.133384927472 R{6,21}
   + 1274.088467019194 R{6,22} + 2412.973253321079 R{6,23}
   + 1647.468396706706 R{6,24} + 1107.694097710038 R{6,25}
   + 1341.645559107205 R{6,26} + 1268.760614154747 R{6,27}
   + 2247.85646546964 R{6,28} + 1467.73319379485 R{6,29}
   + 1245.023179139624 R{6,30} + 1180.963808755229 R{6,31}
   + 1704.338334421788 R{6,32} + 1173.696294971101 R{6,33}
   + 1483.819870335138 R{6,34} + 1069.907066379621 R{6,35}
   + 1794.619930713736 R{6,36} + 1641.674223892471 R{6,37}
   + 2160.375518004394 R{6,38} + 1289.393785996102 R{6,39}
   + 1180.963808755229 R{6,40} + 826.1983996080107 R{6,41}
   + 743.0964861037232 R{6,42} + 2026.44884526813 R{6,43}
   + 1851.406093565416 R{6,44} + 1800.153771670832 R{6,45}
   + 1873.230006992228 R{6,46}
Subject To
 R00: R{0,0} <= 1
 R01: R{0,1} <= 1
 R02: R{0,2} <= 1
 R03: R{0,3} <= 1
 R04: R{0,4} <= 1
 R05: R{0,5} <= 1
 R06: R{0,6} <= 1
 R07: R{0,7} <= 1
 R08: R{0,8} <= 1
 R09: R{0,9} <= 1
 R010: R{0,10} <= 1
 R011: R{0,11} <= 1
 R012: R{0,12} <= 1
 R013: R{0,13} <= 1
 R014: R{0,14} <= 1
 R015: R{0,15} <= 1
 R016: R{0,16} <= 1
 R017: R{0,17} <= 1
 R018: R{0,18} <= 1
 R019: R{0,19} <= 1
 R020: R{0,20} <= 1
 R021: R{0,21} <= 1
 R022: R{0,22} <= 1
 R023: R{0,23} <= 1
 R024: R{0,24} <= 1
 R025: R{0,25} <= 1
 R026: R{0,26} <= 1
 R027: R{0,27} <= 1
 R028: R{0,28} <= 1
 R029: R{0,29} <= 1
 R030: R{0,30} <= 1
 R031: R{0,31} <= 1
 R032: R{0,32} <= 1
 R033: R{0,33} <= 1
 R034: R{0,34} <= 1
 R035: R{0,35} <= 1
 R036: R{0,36} <= 1
 R037: R{0,37} <= 1
 R038: R{0,38} <= 1
 R039: R{0,39} <= 1
 R040: R{0,40} <= 1
 R041: R{0,41} <= 1
 R042: R{1,0} <= 1
 R043: R{1,1} <= 1
 R044: R{1,2} <= 1
 R045: R{1,3} <= 1
 R046: R{1,4} <= 1
 R047: R{1,5} <= 1
 R048: R{1,6} <= 1
 R049: R{1,7} <= 1
 R050: R{1,8} <= 1
 R051: R{1,9} <= 1
 R052: R{1,10} <= 1
 R053: R{1,11} <= 1
 R054: R{1,12} <= 1
 R055: R{1,13} <= 1
 R056: R{1,14} <= 1
 R057: R{1,15} <= 1
 R058: R{1,16} <= 1
 R059: R{1,17} <= 1
 R060: R{1,18} <= 1
 R061: R{1,19} <= 1
 R062: R{1,20} <= 1
 R063: R{1,21} <= 1
 R064: R{1,22} <= 1
 R065: R{1,23} <= 1
 R066: R{1,24} <= 1
 R067: R{1,25} <= 1
 R068: R{1,26} <= 1
 R069: R{1,27} <= 1
 R070: R{1,28} <= 1
 R071: R{1,29} <= 1
 R072: R{1,30} <= 1
 R073: R{1,31} <= 1
 R074: R{2,0} <= 1
 R075: R{2,1} <= 1
 R076: R{2,2} <= 1
 R077: R{2,3} <= 1
 R078: R{2,4} <= 1
 R079: R{2,5} <= 1
 R080: R{2,6} <= 1
 R081: R{2,7} <= 1
 R082: R{2,8} <= 1
 R083: R{2,9} <= 1
 R084: R{2,10} <= 1
 R085: R{2,11} <= 1
 R086: R{2,12} <= 1
 R087: R{2,13} <= 1
 R088: R{2,14} <= 1
 R089: R{2,15} <= 1
 R090: R{2,16} <= 1
 R091: R{2,17} <= 1
 R092: R{2,18} <= 1
 R093: R{2,19} <= 1
 R094: R{2,20} <= 1
 R095: R{2,21} <= 1
 R096: R{2,22} <= 1
 R097: R{2,23} <= 1
 R098: R{2,24} <= 1
 R099: R{2,25} <= 1
 R0100: R{2,26} <= 1
 R0101: R{2,27} <= 1
 R0102: R{2,28} <= 1
 R0103: R{2,29} <= 1
 R0104: R{2,30} <= 1
 R0105: R{2,31} <= 1
 R0106: R{2,32} <= 1
 R0107: R{2,33} <= 1
 R0108: R{2,34} <= 1
 R0109: R{2,35} <= 1
 R0110: R{2,36} <= 1
 R0111: R{2,37} <= 1
 R0112: R{2,38} <= 1
 R0113: R{2,39} <= 1
 R0114: R{2,40} <= 1
 R0115: R{3,0} <= 1
 R0116: R{3,1} <= 1
 R0117: R{3,2} <= 1
 R0118: R{3,3} <= 1
 R0119: R{3,4} <= 1
 R0120: R{3,5} <= 1
 R0121: R{3,6} <= 1
 R0122: R{3,7} <= 1
 R0123: R{3,8} <= 1
 R0124: R{3,9} <= 1
 R0125: R{3,10} <= 1
 R0126: R{3,11} <= 1
 R0127: R{3,12} <= 1
 R0128: R{3,13} <= 1
 R0129: R{3,14} <= 1
 R0130: R{3,15} <= 1
 R0131: R{3,16} <= 1
 R0132: R{3,17} <= 1
 R0133: R{3,18} <= 1
 R0134: R{3,19} <= 1
 R0135: R{3,20} <= 1
 R0136: R{3,21} <= 1
 R0137: R{3,22} <= 1
 R0138: R{3,23} <= 1
 R0139: R{4,0} <= 1
 R0140: R{4,1} <= 1
 R0141: R{4,2} <= 1
 R0142: R{4,3} <= 1
 R0143: R{4,4} <= 1
 R0144: R{4,5} <= 1
 R0145: R{4,6} <= 1
 R0146: R{4,7} <= 1
 R0147: R{4,8} <= 1
 R0148: R{4,9} <= 1
 R0149: R{4,10} <= 1
 R0150: R{4,11} <= 1
 R0151: R{4,12} <= 1
 R0152: R{4,13} <= 1
 R0153: R{4,14} <= 1
 R0154: R{4,15} <= 1
 R0155: R{4,16} <= 1
 R0156: R{4,17} <= 1
 R0157: R{4,18} <= 1
 R0158: R{4,19} <= 1
 R0159: R{4,20} <= 1
 R0160: R{4,21} <= 1
 R0161: R{4,22} <= 1
 R0162: R{4,23} <= 1
 R0163: R{4,24} <= 1
 R0164: R{4,25} <= 1
 R0165: R{4,26} <= 1
 R0166: R{4,27} <= 1
 R0167: R{4,28} <= 1
 R0168: R{4,29} <= 1
 R0169: R{4,30} <= 1
 R0170: R{4,31} <= 1
 R0171: R{4,32} <= 1
 R0172: R{4,33} <= 1
 R0173: R{4,34} <= 1
 R0174: R{4,35} <= 1
 R0175: R{4,36} <= 1
 R0176: R{4,37} <= 1
 R0177: R{4,38} <= 1
 R0178: R{4,39} <= 1
 R0179: R{4,40} <= 1
 R0180: R{4,41} <= 1
 R0181: R{4,42} <= 1
 R0182: R{4,43} <= 1
 R0183: R{4,44} <= 1
 R0184: R{4,45} <= 1
 R0185: R{4,46} <= 1
 R0186: R{4,47} <= 1
 R0187: R{4,48} <= 1
 R0188: R{4,49} <= 1
 R0189: R{4,50} <= 1
 R0190: R{4,51} <= 1
 R0191: R{4,52} <= 1
 R0192: R{4,53} <= 1
 R0193: R{4,54} <= 1
 R0194: R{4,55} <= 1
 R0195: R{4,56} <= 1
 R0196: R{4,57} <= 1
 R0197: R{4,58} <= 1
 R0198: R{4,59} <= 1
 R0199: R{4,60} <= 1
 R0200: R{4,61} <= 1
 R0201: R{4,62} <= 1
 R0202: R{4,63} <= 1
 R0203: R{4,64} <= 1
 R0204: R{4,65} <= 1
 R0205: R{4,66} <= 1
 R0206: R{4,67} <= 1
 R0207: R{5,0} <= 1
 R0208: R{5,1} <= 1
 R0209: R{5,2} <= 1
 R0210: R{5,3} <= 1
 R0211: R{5,4} <= 1
 R0212: R{5,5} <= 1
 R0213: R{5,6} <= 1
 R0214: R{5,7} <= 1
 R0215: R{5,8} <= 1
 R0216: R{5,9} <= 1
 R0217: R{5,10} <= 1
 R0218: R{5,11} <= 1
 R0219: R{5,12} <= 1
 R0220: R{5,13} <= 1
 R0221: R{5,14} <= 1
 R0222: R{5,15} <= 1
 R0223: R{5,16} <= 1
 R0224: R{5,17} <= 1
 R0225: R{5,18} <= 1
 R0226: R{6,0} <= 1
 R0227: R{6,1} <= 1
 R0228: R{6,2} <= 1
 R0229: R{6,3} <= 1
 R0230: R{6,4} <= 1
 R0231: R{6,5} <= 1
 R0232: R{6,6} <= 1
 R0233: R{6,7} <= 1
 R0234: R{6,8} <= 1
 R0235: R{6,9} <= 1
 R0236: R{6,10} <= 1
 R0237: R{6,11} <= 1
 R0238: R{6,12} <= 1
 R0239: R{6,13} <= 1
 R0240: R{6,14} <= 1
 R0241: R{6,15} <= 1
 R0242: R{6,16} <= 1
 R0243: R{6,17} <= 1
 R0244: R{6,18} <= 1
 R0245: R{6,19} <= 1
 R0246: R{6,20} <= 1
 R0247: R{6,21} <= 1
 R0248: R{6,22} <= 1
 R0249: R{6,23} <= 1
 R0250: R{6,24} <= 1
 R0251: R{6,25} <= 1
 R0252: R{6,26} <= 1
 R0253: R{6,27} <= 1
 R0254: R{6,28} <= 1
 R0255: R{6,29} <= 1
 R0256: R{6,30} <= 1
 R0257: R{6,31} <= 1
 R0258: R{6,32} <= 1
 R0259: R{6,33} <= 1
 R0260: R{6,34} <= 1
 R0261: R{6,35} <= 1
 R0262: R{6,36} <= 1
 R0263: R{6,37} <= 1
 R0264: R{6,38} <= 1
 R0265: R{6,39} <= 1
 R0266: R{6,40} <= 1
 R0267: R{6,41} <= 1
 R0268: R{6,42} <= 1
 R0269: R{6,43} <= 1
 R0270: R{6,44} <= 1
 R0271: R{6,45} <= 1
 R0272: R{6,46} <= 1
 R1_0: R{0,0} + R{0,1} + R{0,2} + R{0,3} + R{0,4} + R{0,5} + R{0,6}
   + R{0,7} + R{0,8} + R{0,9} + R{0,10} + R{0,11} + R{0,12} + R{0,13}
   + R{0,14} + R{0,15} + R{0,16} + R{0,17} + R{0,18} + R{0,19} + R{0,20}
   + R{0,21} + R{0,22} + R{0,23} + R{0,24} + R{0,25} + R{0,26} + R{0,27}
   + R{0,28} + R{0,29} + R{0,30} + R{0,31} + R{0,32} + R{0,33} + R{0,34}
   + R{0,35} + R{0,36} + R{0,37} + R{0,38} + R{0,39} + R{0,40} + R{0,41}
   <= 1
 R1_1: R{1,0} + R{1,1} + R{1,2} + R{1,3} + R{1,4} + R{1,5} + R{1,6}
   + R{1,7} + R{1,8} + R{1,9} + R{1,10} + R{1,11} + R{1,12} + R{1,13}
   + R{1,14} + R{1,15} + R{1,16} + R{1,17} + R{1,18} + R{1,19} + R{1,20}
   + R{1,21} + R{1,22} + R{1,23} + R{1,24} + R{1,25} + R{1,26} + R{1,27}
   + R{1,28} + R{1,29} + R{1,30} + R{1,31} <= 1
 R1_2: R{2,0} + R{2,1} + R{2,2} + R{2,3} + R{2,4} + R{2,5} + R{2,6}
   + R{2,7} + R{2,8} + R{2,9} + R{2,10} + R{2,11} + R{2,12} + R{2,13}
   + R{2,14} + R{2,15} + R{2,16} + R{2,17} + R{2,18} + R{2,19} + R{2,20}
   + R{2,21} + R{2,22} + R{2,23} + R{2,24} + R{2,25} + R{2,26} + R{2,27}
   + R{2,28} + R{2,29} + R{2,30} + R{2,31} + R{2,32} + R{2,33} + R{2,34}
   + R{2,35} + R{2,36} + R{2,37} + R{2,38} + R{2,39} + R{2,40} <= 1
 R1_3: R{3,0} + R{3,1} + R{3,2} + R{3,3} + R{3,4} + R{3,5} + R{3,6}
   + R{3,7} + R{3,8} + R{3,9} + R{3,10} + R{3,11} + R{3,12} + R{3,13}
   + R{3,14} + R{3,15} + R{3,16} + R{3,17} + R{3,18} + R{3,19} + R{3,20}
   + R{3,21} + R{3,22} + R{3,23} <= 1
 R1_4: R{4,0} + R{4,1} + R{4,2} + R{4,3} + R{4,4} + R{4,5} + R{4,6}
   + R{4,7} + R{4,8} + R{4,9} + R{4,10} + R{4,11} + R{4,12} + R{4,13}
   + R{4,14} + R{4,15} + R{4,16} + R{4,17} + R{4,18} + R{4,19} + R{4,20}
   + R{4,21} + R{4,22} + R{4,23} + R{4,24} + R{4,25} + R{4,26} + R{4,27}
   + R{4,28} + R{4,29} + R{4,30} + R{4,31} + R{4,32} + R{4,33} + R{4,34}
   + R{4,35} + R{4,36} + R{4,37} + R{4,38} + R{4,39} + R{4,40} + R{4,41}
   + R{4,42} + R{4,43} + R{4,44} + R{4,45} + R{4,46} + R{4,47} + R{4,48}
   + R{4,49} + R{4,50} + R{4,51} + R{4,52} + R{4,53} + R{4,54} + R{4,55}
   + R{4,56} + R{4,57} + R{4,58} + R{4,59} + R{4,60} + R{4,61} + R{4,62}
   + R{4,63} + R{4,64} + R{4,65} + R{4,66} + R{4,67} <= 1
 R1_5: R{5,0} + R{5,1} + R{5,2} + R{5,3} + R{5,4} + R{5,5} + R{5,6}
   + R{5,7} + R{5,8} + R{5,9} + R{5,10} + R{5,11} + R{5,12} + R{5,13}
   + R{5,14} + R{5,15} + R{5,16} + R{5,17} + R{5,18} <= 1
 R1_6: R{6,0} + R{6,1} + R{6,2} + R{6,3} + R{6,4} + R{6,5} + R{6,6}
   + R{6,7} + R{6,8} + R{6,9} + R{6,10} + R{6,11} + R{6,12} + R{6,13}
   + R{6,14} + R{6,15} + R{6,16} + R{6,17} + R{6,18} + R{6,19} + R{6,20}
   + R{6,21} + R{6,22} + R{6,23} + R{6,24} + R{6,25} + R{6,26} + R{6,27}
   + R{6,28} + R{6,29} + R{6,30} + R{6,31} + R{6,32} + R{6,33} + R{6,34}
   + R{6,35} + R{6,36} + R{6,37} + R{6,38} + R{6,39} + R{6,40} + R{6,41}
   + R{6,42} + R{6,43} + R{6,44} + R{6,45} + R{6,46} <= 1
 R2_0: <= 0
 R2_1: 10 R{3,1} + 10 R{3,2} + 10 R{3,3} + 10 R{3,5} + 10 R{3,6}
   + 10 R{3,10} + 10 R{3,11} + 10 R{3,15} + 10 R{3,16} + 10 R{3,17}
   + 10 R{3,18} + 10 R{3,19} + 10 R{3,23} + 10 R{5,18} + 10 R{6,8}
   + 10 R{6,19} + 10 R{6,21} + 10 R{6,29} + 10 R{6,34} + 10 R{6,46} <= 10
 R2_2: <= 0
 R2_3: 4 R{1,9} + 4 R{1,17} + 4 R{1,28} + 4 R{1,29} + 4 R{1,31} + 4 R{5,1}
   + 4 R{5,2} + 4 R{5,3} + 4 R{5,4} + 4 R{5,5} + 4 R{5,6} + 4 R{5,8}
   + 4 R{5,16} <= 4
 R2_4: <= 0
 R2_5: 5 R{5,1} + 5 R{5,2} + 5 R{5,7} + 5 R{5,15} <= 5
 R2_6: 10 R{1,1} + 10 R{1,2} + 10 R{1,3} + 10 R{1,4} + 10 R{1,5}
   + 10 R{1,6} + 10 R{1,7} + 10 R{1,9} + 10 R{1,10} + 10 R{1,12}
   + 10 R{1,13} + 10 R{1,14} + 10 R{1,15} + 10 R{1,16} + 10 R{1,17}
   + 10 R{1,18} + 10 R{1,20} + 10 R{1,21} + 10 R{1,22} + 10 R{1,23}
   + 10 R{1,24} + 10 R{1,25} + 10 R{1,26} + 10 R{1,28} + 10 R{1,29}
   + 10 R{1,30} + 10 R{1,31} + 10 R{4,67} + 10 R{5,15} + 10 R{6,34} <= 10
 R2_7: 6 R{1,1} + 6 R{1,3} + 6 R{1,4} + 6 R{1,5} + 6 R{1,6} + 6 R{1,8}
   + 6 R{1,9} + 6 R{1,10} + 6 R{1,11} + 6 R{1,12} + 6 R{1,17} + 6 R{1,18}
   + 6 R{1,20} + 6 R{1,23} + 6 R{1,26} + 6 R{1,28} + 6 R{1,30} <= 6
 R2_8: 9 R{3,23} <= 9
 R2_9: 12 R{3,23} + 12 R{4,1} + 12 R{4,2} + 12 R{4,3} + 12 R{4,4}
   + 12 R{4,5} + 12 R{4,6} + 12 R{4,7} + 12 R{4,8} + 12 R{4,9} + 12 R{4,10}
   + 12 R{4,11} + 12 R{4,12} + 12 R{4,13} + 12 R{4,14} + 12 R{4,15}
   + 12 R{4,16} + 12 R{4,17} + 12 R{4,18} + 12 R{4,19} + 12 R{4,20}
   + 12 R{4,21} + 12 R{4,22} + 12 R{4,23} + 12 R{4,24} + 12 R{4,25}
   + 12 R{4,26} + 12 R{4,27} + 12 R{4,28} + 12 R{4,29} + 12 R{4,30}
   + 12 R{4,31} + 12 R{4,32} + 12 R{4,33} + 12 R{4,34} + 12 R{4,35}
   + 12 R{4,36} + 12 R{4,37} + 12 R{4,38} + 12 R{4,39} + 12 R{4,40}
   + 12 R{4,41} + 12 R{4,42} + 12 R{4,43} + 12 R{4,44} + 12 R{4,45}
   + 12 R{4,46} + 12 R{4,47} + 12 R{4,48} + 12 R{4,49} + 12 R{4,50}
   + 12 R{4,51} + 12 R{4,52} + 12 R{4,53} + 12 R{4,54} + 12 R{4,55}
   + 12 R{4,56} + 12 R{4,57} + 12 R{4,58} + 12 R{4,59} + 12 R{4,60}
   + 12 R{4,61} + 12 R{4,62} + 12 R{4,63} + 12 R{4,64} + 12 R{4,65}
   + 12 R{4,66} + 12 R{4,67} <= 12
 R2_10: 8 R{0,9} + 8 R{0,12} + 8 R{0,14} + 8 R{0,19} + 8 R{0,20}
   + 8 R{0,26} + 8 R{0,28} + 8 R{0,29} + 8 R{0,31} + 8 R{2,9} + 8 R{2,16}
   + 8 R{2,19} + 8 R{2,20} + 8 R{2,30} + 8 R{2,31} + 8 R{2,32} + 8 R{2,40}
   + 8 R{6,1} + 8 R{6,2} + 8 R{6,4} + 8 R{6,5} + 8 R{6,6} + 8 R{6,7}
   + 8 R{6,8} + 8 R{6,10} + 8 R{6,11} + 8 R{6,12} + 8 R{6,13} + 8 R{6,14}
   + 8 R{6,15} + 8 R{6,16} + 8 R{6,17} + 8 R{6,18} + 8 R{6,19} + 8 R{6,21}
   + 8 R{6,22} + 8 R{6,23} + 8 R{6,24} + 8 R{6,26} + 8 R{6,27} + 8 R{6,28}
   + 8 R{6,29} + 8 R{6,31} + 8 R{6,32} + 8 R{6,33} + 8 R{6,36} + 8 R{6,40}
   + 8 R{6,41} + 8 R{6,42} + 8 R{6,43} + 8 R{6,44} + 8 R{6,45} + 8 R{6,46}
   <= 8
 R2_11: 15 R{0,40} + 15 R{2,30} + 15 R{2,32} + 15 R{3,23} + 15 R{4,64}
   + 15 R{4,66} <= 15
 R2_12: <= 0
 R2_13: <= 0
 R2_14: <= 0
 R2_15: 11 R{0,0} + 11 R{0,1} + 11 R{0,2} + 11 R{0,6} + 11 R{0,7}
   + 11 R{0,10} + 11 R{0,11} + 11 R{0,15} + 11 R{0,18} + 11 R{0,20}
   + 11 R{0,27} + 11 R{0,30} + 11 R{0,33} + 11 R{0,39} + 11 R{4,1}
   + 11 R{4,2} + 11 R{4,3} + 11 R{4,4} + 11 R{4,5} + 11 R{4,7} + 11 R{4,8}
   + 11 R{4,9} + 11 R{4,11} + 11 R{4,12} + 11 R{4,13} + 11 R{4,14}
   + 11 R{4,18} + 11 R{4,27} + 11 R{4,28} <= 11
 R2_16: 5 R{0,9} + 5 R{0,10} + 5 R{0,11} + 5 R{0,12} + 5 R{0,14}
   + 5 R{0,15} + 5 R{0,16} + 5 R{0,17} + 5 R{0,18} + 5 R{0,19} + 5 R{0,21}
   + 5 R{0,22} + 5 R{0,23} + 5 R{0,24} + 5 R{0,27} + 5 R{0,28} + 5 R{0,29}
   + 5 R{0,30} + 5 R{0,33} + 5 R{0,35} + 5 R{0,36} + 5 R{0,38} + 5 R{0,39}
   + 5 R{0,41} + 5 R{2,17} + 5 R{2,18} + 5 R{2,21} + 5 R{2,23} + 5 R{2,26}
   + 5 R{2,28} + 5 R{2,29} + 5 R{2,31} + 5 R{2,35} + 5 R{2,37} <= 5
 R2_17: 11 R{1,11} + 11 R{1,19} + 11 R{4,46} <= 11
 R2_18: <= 0
 R2_19: 11 R{0,11} + 11 R{4,1} + 11 R{4,2} + 11 R{4,3} + 11 R{4,4}
   + 11 R{4,5} + 11 R{4,6} + 11 R{4,7} + 11 R{4,8} + 11 R{4,9} + 11 R{4,10}
   + 11 R{4,11} + 11 R{4,13} + 11 R{4,15} + 11 R{4,16} + 11 R{4,17}
   + 11 R{4,18} + 11 R{4,20} + 11 R{4,21} + 11 R{4,22} + 11 R{4,23}
   + 11 R{4,24} + 11 R{4,25} + 11 R{4,27} + 11 R{4,28} + 11 R{4,29}
   + 11 R{4,32} + 11 R{4,33} + 11 R{4,36} + 11 R{4,40} + 11 R{4,41}
   + 11 R{4,42} + 11 R{4,43} + 11 R{4,44} + 11 R{4,46} + 11 R{4,49}
   + 11 R{4,51} + 11 R{4,53} + 11 R{4,56} + 11 R{4,57} + 11 R{4,62}
   + 11 R{4,65} + 11 R{4,66} + 11 R{6,17} <= 11
 R2_20: 13 R{0,16} + 13 R{0,38} + 13 R{1,19} + 13 R{2,5} + 13 R{2,12}
   + 13 R{5,9} + 13 R{5,12} + 13 R{5,13} + 13 R{5,14} + 13 R{6,1}
   + 13 R{6,2} + 13 R{6,3} + 13 R{6,4} + 13 R{6,5} + 13 R{6,6} + 13 R{6,7}
   + 13 R{6,8} + 13 R{6,10} + 13 R{6,11} + 13 R{6,12} + 13 R{6,13}
   + 13 R{6,14} + 13 R{6,15} + 13 R{6,16} + 13 R{6,17} + 13 R{6,18}
   + 13 R{6,19} + 13 R{6,20} + 13 R{6,22} + 13 R{6,23} + 13 R{6,24}
   + 13 R{6,25} + 13 R{6,26} + 13 R{6,27} + 13 R{6,28} + 13 R{6,30}
   + 13 R{6,32} + 13 R{6,33} + 13 R{6,35} + 13 R{6,37} + 13 R{6,39}
   + 13 R{6,42} + 13 R{6,43} + 13 R{6,44} + 13 R{6,46} <= 13
 R2_21: <= 0
 R2_22: 10 R{2,21} + 10 R{2,26} + 10 R{2,38} + 10 R{2,40} + 10 R{3,21}
   + 10 R{4,65} <= 10
 R2_23: 14 R{0,1} + 14 R{0,2} + 14 R{0,6} + 14 R{0,8} + 14 R{0,9}
   + 14 R{0,10} + 14 R{0,12} + 14 R{0,14} + 14 R{0,17} + 14 R{0,19}
   + 14 R{0,21} + 14 R{0,22} + 14 R{0,23} + 14 R{0,24} + 14 R{0,25}
   + 14 R{0,26} + 14 R{0,28} + 14 R{0,29} + 14 R{0,31} + 14 R{0,32}
   + 14 R{0,34} + 14 R{0,37} + 14 R{2,0} + 14 R{2,1} + 14 R{2,7}
   + 14 R{2,11} + 14 R{2,34} + 14 R{2,40} + 14 R{6,2} + 14 R{6,3}
   + 14 R{6,4} + 14 R{6,5} + 14 R{6,7} + 14 R{6,8} + 14 R{6,9} + 14 R{6,10}
   + 14 R{6,18} + 14 R{6,19} + 14 R{6,23} + 14 R{6,26} + 14 R{6,28}
   + 14 R{6,29} + 14 R{6,31} + 14 R{6,33} + 14 R{6,38} + 14 R{6,40}
   + 14 R{6,43} + 14 R{6,44} + 14 R{6,45} + 14 R{6,46} <= 14
 R2_24: 10 R{1,14} + 10 R{3,1} + 10 R{3,2} + 10 R{3,3} + 10 R{3,4}
   + 10 R{3,5} + 10 R{3,6} + 10 R{3,7} + 10 R{3,8} + 10 R{3,9} + 10 R{3,10}
   + 10 R{3,11} + 10 R{3,12} + 10 R{3,13} + 10 R{3,14} + 10 R{3,16}
   + 10 R{3,17} + 10 R{3,18} + 10 R{3,19} + 10 R{3,21} + 10 R{3,22}
   + 10 R{3,23} + 10 R{5,17} <= 10
 R2_25: 13 R{0,11} + 13 R{0,15} + 13 R{0,16} + 13 R{0,27} + 13 R{0,30}
   + 13 R{0,33} + 13 R{0,38} + 13 R{0,39} + 13 R{0,41} + 13 R{2,22}
   + 13 R{2,25} + 13 R{2,36} + 13 R{4,1} + 13 R{4,2} + 13 R{4,3}
   + 13 R{4,4} + 13 R{4,5} + 13 R{4,6} + 13 R{4,7} + 13 R{4,8} + 13 R{4,9}
   + 13 R{4,10} + 13 R{4,12} + 13 R{4,13} + 13 R{4,14} + 13 R{4,15}
   + 13 R{4,16} + 13 R{4,17} + 13 R{4,18} + 13 R{4,19} + 13 R{4,20}
   + 13 R{4,21} + 13 R{4,22} + 13 R{4,23} + 13 R{4,24} + 13 R{4,25}
   + 13 R{4,26} + 13 R{4,27} + 13 R{4,28} + 13 R{4,29} + 13 R{4,30}
   + 13 R{4,31} + 13 R{4,32} + 13 R{4,33} + 13 R{4,34} + 13 R{4,35}
   + 13 R{4,36} + 13 R{4,37} + 13 R{4,38} + 13 R{4,39} + 13 R{4,41}
   + 13 R{4,42} + 13 R{4,43} + 13 R{4,44} + 13 R{4,45} + 13 R{4,46}
   + 13 R{4,47} + 13 R{4,48} + 13 R{4,49} + 13 R{4,50} + 13 R{4,53}
   + 13 R{4,54} + 13 R{4,55} + 13 R{4,56} + 13 R{4,57} + 13 R{4,58}
   + 13 R{4,59} + 13 R{4,60} + 13 R{4,61} + 13 R{4,62} + 13 R{4,63}
   + 13 R{4,64} + 13 R{4,66} <= 13
 R2_26: 6 R{1,16} + 6 R{3,19} + 6 R{3,23} + 6 R{5,1} + 6 R{5,2} + 6 R{5,3}
   + 6 R{5,4} + 6 R{5,5} + 6 R{5,6} + 6 R{5,7} + 6 R{5,8} + 6 R{5,9}
   + 6 R{5,10} + 6 R{5,11} + 6 R{5,12} + 6 R{5,14} + 6 R{5,16} + 6 R{5,17}
   + 6 R{5,18} <= 6
 R2_27: 5 R{1,10} + 5 R{1,11} + 5 R{1,18} + 5 R{1,19} + 5 R{1,20}
   + 5 R{1,21} + 5 R{1,26} + 5 R{3,3} + 5 R{3,23} + 5 R{6,1} + 5 R{6,2}
   + 5 R{6,3} + 5 R{6,4} + 5 R{6,6} + 5 R{6,9} + 5 R{6,12} + 5 R{6,13}
   + 5 R{6,15} + 5 R{6,16} + 5 R{6,17} + 5 R{6,20} + 5 R{6,22} + 5 R{6,23}
   + 5 R{6,24} + 5 R{6,27} + 5 R{6,28} + 5 R{6,30} + 5 R{6,32} + 5 R{6,35}
   + 5 R{6,36} + 5 R{6,37} + 5 R{6,38} + 5 R{6,39} + 5 R{6,41} + 5 R{6,43}
   + 5 R{6,44} + 5 R{6,45} <= 5
 R2_28: <= 0
 R2_29: <= 0
 R2_30: <= 0
 R2_31: <= 0
 R2_32: 7 R{0,4} + 7 R{0,5} + 7 R{0,13} + 7 R{2,12} + 7 R{2,27} <= 7
 R2_33: 12 R{1,16} + 12 R{3,23} + 12 R{4,67} + 12 R{5,13} + 12 R{5,18}
   <= 12
 R2_34: 5 R{0,11} + 5 R{0,15} + 5 R{0,16} + 5 R{0,27} + 5 R{0,30}
   + 5 R{0,33} + 5 R{0,38} + 5 R{0,39} + 5 R{0,41} + 5 R{2,19} + 5 R{2,20}
   + 5 R{2,22} + 5 R{2,25} + 5 R{2,36} + 5 R{2,39} + 5 R{3,20} + 5 R{4,16}
   + 5 R{4,40} + 5 R{4,67} <= 5
 R2_35: 13 R{2,13} + 13 R{2,24} <= 13
 R2_36: <= 0
 R2_37: 5 R{3,1} + 5 R{3,2} + 5 R{3,4} + 5 R{3,5} + 5 R{3,6} + 5 R{3,7}
   + 5 R{3,8} + 5 R{3,10} + 5 R{3,11} + 5 R{3,12} + 5 R{3,13} + 5 R{3,15}
   + 5 R{3,16} + 5 R{3,17} + 5 R{3,18} + 5 R{3,19} + 5 R{3,21} + 5 R{3,22}
   + 5 R{3,23} <= 5
 R2_38: <= 0
 R2_39: <= 0
 R2_40: 15 R{1,15} + 15 R{1,27} + 15 R{2,3} + 15 R{2,4} + 15 R{2,5}
   + 15 R{2,12} + 15 R{2,27} <= 15
 R2_41: 5 R{0,11} + 5 R{0,15} + 5 R{0,16} + 5 R{0,27} + 5 R{0,30}
   + 5 R{0,33} + 5 R{0,38} + 5 R{0,39} + 5 R{0,41} + 5 R{3,2} + 5 R{3,3}
   + 5 R{3,4} + 5 R{3,5} + 5 R{3,8} + 5 R{3,9} + 5 R{3,10} + 5 R{3,15}
   + 5 R{3,17} + 5 R{3,20} + 5 R{3,21} + 5 R{3,22} + 5 R{4,4} + 5 R{4,11}
   + 5 R{4,18} + 5 R{4,24} + 5 R{4,51} <= 5
 R2_42: 4 R{2,3} + 4 R{2,4} + 4 R{2,5} + 4 R{2,12} + 4 R{2,27} <= 4
 R2_43: <= 0
 R2_44: <= 0
 R2_45: <= 0
 R2_46: 9 R{0,32} + 9 R{0,41} + 9 R{2,9} + 9 R{2,10} + 9 R{2,14}
   + 9 R{2,15} + 9 R{2,16} + 9 R{2,31} + 9 R{2,33} + 9 R{2,37} + 9 R{4,6}
   + 9 R{4,10} + 9 R{4,15} + 9 R{4,16} + 9 R{4,20} + 9 R{4,21} + 9 R{4,29}
   + 9 R{4,32} + 9 R{4,33} + 9 R{4,40} + 9 R{4,46} + 9 R{4,50} + 9 R{4,67}
   + 9 R{6,23} <= 9
 R2_47: 7 R{5,1} + 7 R{5,2} + 7 R{5,3} + 7 R{5,4} + 7 R{5,5} + 7 R{5,7}
   + 7 R{5,8} + 7 R{5,9} + 7 R{5,11} + 7 R{5,13} + 7 R{5,15} + 7 R{5,16}
   + 7 R{5,18} <= 7
 R2_48: 4 R{0,22} + 4 R{4,1} + 4 R{4,2} + 4 R{4,3} + 4 R{4,4} + 4 R{4,5}
   + 4 R{4,6} + 4 R{4,7} + 4 R{4,8} + 4 R{4,9} + 4 R{4,10} + 4 R{4,11}
   + 4 R{4,12} + 4 R{4,13} + 4 R{4,14} + 4 R{4,15} + 4 R{4,16} + 4 R{4,17}
   + 4 R{4,18} + 4 R{4,19} + 4 R{4,20} + 4 R{4,21} + 4 R{4,22} + 4 R{4,23}
   + 4 R{4,24} + 4 R{4,25} + 4 R{4,26} + 4 R{4,27} + 4 R{4,28} + 4 R{4,29}
   + 4 R{4,30} + 4 R{4,32} + 4 R{4,33} + 4 R{4,34} + 4 R{4,36} + 4 R{4,37}
   + 4 R{4,40} + 4 R{4,41} + 4 R{4,43} + 4 R{4,46} + 4 R{4,48} + 4 R{4,49}
   + 4 R{4,50} + 4 R{4,52} + 4 R{4,53} + 4 R{4,54} + 4 R{4,57} + 4 R{4,58}
   + 4 R{4,61} + 4 R{4,62} + 4 R{4,65} + 4 R{4,67} <= 4
 R2_49: <= 0
 R2_50: <= 0
 R2_51: 11 R{3,23} + 11 R{4,1} + 11 R{4,7} + 11 R{4,8} + 11 R{4,12}
   + 11 R{4,13} + 11 R{4,15} + 11 R{4,17} + 11 R{4,20} + 11 R{4,23}
   + 11 R{4,25} + 11 R{4,26} + 11 R{4,30} + 11 R{4,32} + 11 R{4,35}
   + 11 R{4,37} + 11 R{4,38} + 11 R{4,39} + 11 R{4,46} + 11 R{4,47}
   + 11 R{4,50} + 11 R{4,54} + 11 R{4,56} + 11 R{4,57} + 11 R{4,58}
   + 11 R{4,61} + 11 R{4,63} + 11 R{4,66} + 11 R{4,67} + 11 R{5,18} <= 11
 R2_52: 10 R{0,40} + 10 R{0,41} <= 10
 R2_53: 13 R{4,1} + 13 R{4,2} + 13 R{4,3} + 13 R{4,4} + 13 R{4,5}
   + 13 R{4,6} + 13 R{4,7} + 13 R{4,8} + 13 R{4,9} + 13 R{4,10}
   + 13 R{4,11} + 13 R{4,12} + 13 R{4,13} + 13 R{4,14} + 13 R{4,15}
   + 13 R{4,16} + 13 R{4,17} + 13 R{4,18} + 13 R{4,19} + 13 R{4,20}
   + 13 R{4,21} + 13 R{4,22} + 13 R{4,23} + 13 R{4,24} + 13 R{4,25}
   + 13 R{4,26} + 13 R{4,27} + 13 R{4,28} + 13 R{4,29} + 13 R{4,30}
   + 13 R{4,31} + 13 R{4,32} + 13 R{4,33} + 13 R{4,34} + 13 R{4,35}
   + 13 R{4,36} + 13 R{4,37} + 13 R{4,38} + 13 R{4,39} + 13 R{4,40}
   + 13 R{4,41} + 13 R{4,42} + 13 R{4,43} + 13 R{4,44} + 13 R{4,45}
   + 13 R{4,46} + 13 R{4,47} + 13 R{4,48} + 13 R{4,49} + 13 R{4,50}
   + 13 R{4,51} + 13 R{4,52} + 13 R{4,53} + 13 R{4,54} + 13 R{4,55}
   + 13 R{4,56} + 13 R{4,57} + 13 R{4,58} + 13 R{4,59} + 13 R{4,60}
   + 13 R{4,61} + 13 R{4,62} + 13 R{4,63} + 13 R{4,64} + 13 R{4,65}
   + 13 R{4,66} <= 13
 R2_54: 9 R{3,1} + 9 R{3,2} + 9 R{3,3} + 9 R{3,4} + 9 R{3,5} + 9 R{3,6}
   + 9 R{3,7} + 9 R{3,8} + 9 R{3,9} + 9 R{3,10} + 9 R{3,11} + 9 R{3,12}
   + 9 R{3,13} + 9 R{3,14} + 9 R{3,15} + 9 R{3,16} + 9 R{3,17} + 9 R{3,18}
   + 9 R{3,19} + 9 R{3,21} + 9 R{3,22} + 9 R{3,23} <= 9
 R2_55: 8 R{6,1} + 8 R{6,2} + 8 R{6,3} + 8 R{6,4} + 8 R{6,5} + 8 R{6,6}
   + 8 R{6,7} + 8 R{6,8} + 8 R{6,9} + 8 R{6,10} + 8 R{6,11} + 8 R{6,12}
   + 8 R{6,13} + 8 R{6,14} + 8 R{6,15} + 8 R{6,16} + 8 R{6,17} + 8 R{6,18}
   + 8 R{6,19} + 8 R{6,20} + 8 R{6,21} + 8 R{6,22} + 8 R{6,23} + 8 R{6,24}
   + 8 R{6,25} + 8 R{6,26} + 8 R{6,27} + 8 R{6,28} + 8 R{6,29} + 8 R{6,30}
   + 8 R{6,31} + 8 R{6,32} + 8 R{6,33} + 8 R{6,34} + 8 R{6,35} + 8 R{6,36}
   + 8 R{6,37} + 8 R{6,38} + 8 R{6,40} + 8 R{6,41} + 8 R{6,42} + 8 R{6,43}
   + 8 R{6,44} + 8 R{6,45} + 8 R{6,46} <= 8
 R2_56: 6 R{0,20} + 6 R{0,26} + 6 R{2,0} + 6 R{2,1} + 6 R{2,6} + 6 R{2,8}
   + 6 R{2,13} + 6 R{2,23} + 6 R{2,24} + 6 R{2,28} + 6 R{2,29} + 6 R{2,34}
   + 6 R{6,2} + 6 R{6,3} + 6 R{6,6} + 6 R{6,8} + 6 R{6,15} + 6 R{6,19}
   + 6 R{6,21} + 6 R{6,23} + 6 R{6,24} + 6 R{6,28} + 6 R{6,29} + 6 R{6,31}
   + 6 R{6,32} + 6 R{6,34} + 6 R{6,36} + 6 R{6,37} + 6 R{6,38} + 6 R{6,39}
   + 6 R{6,40} + 6 R{6,43} <= 6
 R2_57: <= 0
 R2_58: <= 0
 R2_59: 10 R{0,11} + 10 R{0,15} + 10 R{0,16} + 10 R{0,30} + 10 R{0,33}
   + 10 R{0,38} + 10 R{1,16} + 10 R{2,7} + 10 R{2,8} + 10 R{2,9}
   + 10 R{2,10} + 10 R{2,13} + 10 R{2,14} + 10 R{2,15} + 10 R{2,16}
   + 10 R{2,17} + 10 R{2,19} + 10 R{2,20} + 10 R{2,22} + 10 R{2,24}
   + 10 R{2,25} + 10 R{2,30} + 10 R{2,32} + 10 R{2,33} + 10 R{2,39}
   + 10 R{4,40} <= 10
 R2_60: <= 0
 R2_61: 9 R{0,11} + 9 R{0,15} + 9 R{0,16} + 9 R{0,27} + 9 R{0,30}
   + 9 R{0,33} + 9 R{0,38} + 9 R{0,39} + 9 R{0,41} + 9 R{2,18} + 9 R{3,23}
   + 9 R{4,20} + 9 R{4,46} + 9 R{4,67} + 9 R{6,25} + 9 R{6,46} <= 9
 R2_62: <= 0
 R2_63: <= 0
 R2_64: <= 0
 R2_65: 5 R{2,0} + 5 R{2,1} + 5 R{2,6} + 5 R{2,7} + 5 R{2,9} + 5 R{2,10}
   + 5 R{2,11} + 5 R{2,14} + 5 R{2,15} + 5 R{2,16} + 5 R{2,17} + 5 R{2,18}
   + 5 R{2,19} + 5 R{2,20} + 5 R{2,21} + 5 R{2,22} + 5 R{2,23} + 5 R{2,26}
   + 5 R{2,30} + 5 R{2,32} + 5 R{2,33} + 5 R{2,34} + 5 R{2,36} + 5 R{2,38}
   + 5 R{2,39} + 5 R{2,40} + 5 R{3,23} + 5 R{6,1} + 5 R{6,2} + 5 R{6,3}
   + 5 R{6,4} + 5 R{6,5} + 5 R{6,6} + 5 R{6,7} + 5 R{6,9} + 5 R{6,10}
   + 5 R{6,11} + 5 R{6,12} + 5 R{6,13} + 5 R{6,14} + 5 R{6,15} + 5 R{6,16}
   + 5 R{6,17} + 5 R{6,18} + 5 R{6,20} + 5 R{6,22} + 5 R{6,24} + 5 R{6,25}
   + 5 R{6,26} + 5 R{6,27} + 5 R{6,28} + 5 R{6,30} + 5 R{6,32} + 5 R{6,33}
   + 5 R{6,35} + 5 R{6,36} + 5 R{6,37} + 5 R{6,38} + 5 R{6,39} + 5 R{6,41}
   + 5 R{6,42} + 5 R{6,44} + 5 R{6,45} + 5 R{6,46} <= 5
 R2_66: 7 R{1,13} + 7 R{6,1} + 7 R{6,2} + 7 R{6,3} + 7 R{6,4} + 7 R{6,5}
   + 7 R{6,6} + 7 R{6,7} + 7 R{6,8} + 7 R{6,9} + 7 R{6,11} + 7 R{6,14}
   + 7 R{6,18} + 7 R{6,19} + 7 R{6,21} + 7 R{6,23} + 7 R{6,24} + 7 R{6,25}
   + 7 R{6,26} + 7 R{6,28} + 7 R{6,29} + 7 R{6,31} + 7 R{6,32} + 7 R{6,34}
   + 7 R{6,36} + 7 R{6,38} + 7 R{6,40} + 7 R{6,43} + 7 R{6,44} + 7 R{6,45}
   + 7 R{6,46} <= 7
 R2_67: 3 R{0,1} + 3 R{0,2} + 3 R{0,6} + 3 R{0,7} + 3 R{0,8} + 3 R{0,9}
   + 3 R{0,11} + 3 R{0,12} + 3 R{0,14} + 3 R{0,15} + 3 R{0,16} + 3 R{0,17}
   + 3 R{0,18} + 3 R{0,19} + 3 R{0,20} + 3 R{0,21} + 3 R{0,23} + 3 R{0,24}
   + 3 R{0,25} + 3 R{0,26} + 3 R{0,27} + 3 R{0,28} + 3 R{0,29} + 3 R{0,30}
   + 3 R{0,31} + 3 R{0,33} + 3 R{0,34} + 3 R{0,35} + 3 R{0,36} + 3 R{0,37}
   + 3 R{0,38} + 3 R{0,39} + 3 R{2,0} + 3 R{2,1} + 3 R{2,6} + 3 R{2,7}
   + 3 R{2,9} + 3 R{2,10} + 3 R{2,11} + 3 R{2,14} + 3 R{2,15} + 3 R{2,16}
   + 3 R{2,17} + 3 R{2,18} + 3 R{2,19} + 3 R{2,20} + 3 R{2,21} + 3 R{2,23}
   + 3 R{2,26} + 3 R{2,28} + 3 R{2,29} + 3 R{2,30} + 3 R{2,31} + 3 R{2,33}
   + 3 R{2,34} + 3 R{2,35} + 3 R{2,37} + 3 R{2,38} + 3 R{2,39} + 3 R{4,23}
   + 3 R{4,57} + 3 R{6,3} + 3 R{6,6} + 3 R{6,8} + 3 R{6,9} + 3 R{6,15}
   + 3 R{6,19} + 3 R{6,20} + 3 R{6,36} + 3 R{6,38} + 3 R{6,45} <= 3
 R2_68: 6 R{1,1} + 6 R{1,2} + 6 R{1,3} + 6 R{1,4} + 6 R{1,5} + 6 R{1,6}
   + 6 R{1,7} + 6 R{1,8} + 6 R{1,9} + 6 R{1,10} + 6 R{1,11} + 6 R{1,12}
   + 6 R{1,13} + 6 R{1,14} + 6 R{1,15} + 6 R{1,16} + 6 R{1,17} + 6 R{1,18}
   + 6 R{1,19} + 6 R{1,20} + 6 R{1,21} + 6 R{1,23} + 6 R{1,25} + 6 R{1,26}
   + 6 R{1,27} + 6 R{1,28} + 6 R{1,29} + 6 R{1,30} + 6 R{1,31} + 6 R{6,34}
   + 6 R{6,36} <= 6
 R2_69: 7 R{4,40} <= 7
 R2_70: 11 R{1,1} + 11 R{1,2} + 11 R{1,5} + 11 R{1,7} + 11 R{1,22}
   + 11 R{1,23} + 11 R{1,24} + 11 R{1,25} + 11 R{1,30} <= 11
 R2_71: 7 R{0,41} + 7 R{6,1} + 7 R{6,2} + 7 R{6,3} + 7 R{6,4} + 7 R{6,5}
   + 7 R{6,6} + 7 R{6,7} + 7 R{6,8} + 7 R{6,9} + 7 R{6,10} + 7 R{6,11}
   + 7 R{6,12} + 7 R{6,13} + 7 R{6,14} + 7 R{6,15} + 7 R{6,16} + 7 R{6,17}
   + 7 R{6,18} + 7 R{6,19} + 7 R{6,20} + 7 R{6,21} + 7 R{6,22} + 7 R{6,23}
   + 7 R{6,25} + 7 R{6,26} + 7 R{6,27} + 7 R{6,28} + 7 R{6,29} + 7 R{6,30}
   + 7 R{6,31} + 7 R{6,32} + 7 R{6,33} + 7 R{6,34} + 7 R{6,36} + 7 R{6,37}
   + 7 R{6,38} + 7 R{6,40} + 7 R{6,41} + 7 R{6,42} + 7 R{6,43} + 7 R{6,44}
   + 7 R{6,45} + 7 R{6,46} <= 7
 R2_72: <= 0
 R2_73: <= 0
 R2_74: 5 R{5,1} + 5 R{5,4} + 5 R{5,7} + 5 R{5,15} + 5 R{5,18} <= 5
 R2_75: 8 R{6,1} + 8 R{6,2} + 8 R{6,3} + 8 R{6,6} + 8 R{6,8} + 8 R{6,9}
   + 8 R{6,12} + 8 R{6,15} + 8 R{6,16} + 8 R{6,17} + 8 R{6,19} + 8 R{6,20}
   + 8 R{6,21} + 8 R{6,22} + 8 R{6,23} + 8 R{6,24} + 8 R{6,27} + 8 R{6,28}
   + 8 R{6,29} + 8 R{6,30} + 8 R{6,31} + 8 R{6,34} + 8 R{6,35} + 8 R{6,37}
   + 8 R{6,38} + 8 R{6,39} + 8 R{6,40} + 8 R{6,41} + 8 R{6,43} + 8 R{6,44}
   + 8 R{6,45} <= 8
 R2_76: 12 R{0,4} + 12 R{0,5} + 12 R{0,13} + 12 R{1,22} + 12 R{1,24}
   + 12 R{5,5} + 12 R{5,6} + 12 R{5,8} + 12 R{5,10} + 12 R{5,11}
   + 12 R{5,16} <= 12
 R2_77: 7 R{0,5} + 7 R{0,13} + 7 R{1,2} + 7 R{1,7} + 7 R{1,22} + 7 R{1,24}
   + 7 R{1,25} + 7 R{2,4} + 7 R{2,5} + 7 R{4,2} + 7 R{4,3} + 7 R{4,4}
   + 7 R{4,5} + 7 R{4,6} + 7 R{4,9} + 7 R{4,10} + 7 R{4,11} + 7 R{4,14}
   + 7 R{4,16} + 7 R{4,18} + 7 R{4,21} + 7 R{4,22} + 7 R{4,24} + 7 R{4,27}
   + 7 R{4,28} + 7 R{4,33} + 7 R{4,36} + 7 R{4,40} + 7 R{4,42} + 7 R{4,43}
   + 7 R{4,44} + 7 R{4,48} + 7 R{4,49} + 7 R{4,51} + 7 R{4,53} + 7 R{4,59}
   + 7 R{5,2} + 7 R{5,3} + 7 R{5,9} + 7 R{5,13} + 7 R{5,14} + 7 R{5,17}
   <= 7
Bounds
End
